1000 1877
1 2 3 4 5 6 7 8 9 10 11 12 13 14 15 16
0 7 10 17 18 19 20 21 22 23 24 25 26 27 28 29 30 31 32 33 34 35 36 37 38 39 40 41 42 43 44 45 46 47 48 49 50 51 52 53 54 55 56 57 58 59 60 61 62 63 64 65 66 67
0 3 13 68 69 70 71 72 73 74 75 76 77 78 79 80 81 82 83 84 85 86 87 88 89 90 91 92 93 94 95 96 97 98 99 100
0 2 101 102 103 104 105 106 107 108 109 110 111 112 113 114 115 116 117 118 119 120 121
0 7 10 32 47 122 123 124 125 126 127 128 129 130 131 132 133 134 135 136 137 138 139 140 141 142 143 144 145 146 147 148 149 150 151 152 153 154 155 156 157 158
0 159 160 161 162 163 164 165 166 167 168 169 170 171 172 173 174 175 176 177 178 179 180 181 182 183 184 185 186 187 188 189 190 191 192 193 194
0 13 195 196 197 198 199 200 201 202 203 204 205 206 207 208 209 210 211 212 213 214 215 216 217 218 219 220 221 222 223 224 225 226 227 228 229 230 231 232
0 1 4 9 10 12 15 233 234 235 236 237 238 239 240 241 242 243 244 245 246 247 248 249 250 251 252 253 254
0 255 256 257 258 259 260 261 262 263 264 265 266 267 268 269 270 271 272 273 274 275 276 277 278 279 280 281 282 283 284
0 7 10 47 123 285 286 287 288 289 290 291 292 293 294 295 296 297 298 299 300 301 302 303 304 305 306 307 308 309 310 311 312 313 314 315 316
0 1 4 7 9 47 123 317 318 319 320 321 322 323 324 325 326 327 328
0 235 329 330 331 332 333 334 335 336 337 338 339 340 341 342 343 344 345 346 347 348 349 350 351 352 353 354 355 356 357 358 359 360 361 362 363 364 365 366 367 368 369 370 371 372 373 374 375 376 377 378 379 380 381 382 383 384 385 386 387 388 389 390 391 392 393 394 395 396 397 398 399 400 401 402 403 404 405 406 407 408 409 410 411 412 413 414 415 416 417 418
0 7 419 420 421 422 423 424 425 426 427 428 429 430 431 432 433
0 2 6 197 201 214 215 223 224 228 434 435 436 437 438 439 440 441 442 443 444 445 446 447 448 449 450 451 452 453 454 455 456 457 458 459 460 461 462 463 464 465 466 467 468 469 470 471 472 473 474 475 476 477 478 479 480 481 482 483 484 485 486 487
0 488 489 490 491 492 493 494 495 496 497 498 499 500 501 502 503 504 505 506 507 508 509 510 511 512 513 514 515 516 517
0 7 246 248 518 519 520 521 522 523 524 525 526 527 528 529 530 531 532
0 533 534 535 536 537 538 539 540 541 542 543 544 545 546 547 548 549 550 551 552 553 554 555 556 557 558 559 560 561 562 563 564 565 566 567 568 569 570 571 572 573 574 575 576 577 578 579 580 581 582 583 584 585 586 587 588 589 590 591 592 593 594 595 596 597 598 599 600 601 602 603 604 605 606 607 608 609 610 611 612 613 614 615 616 617 618 619 620 621 622 623 624 625 626 627 628 629 630 631 632 633 634 635 636 637 638 639 640 641 642 643 644 645 646 647 648 649 650 651 652 653 654 655 656 657 658 659 660 661 662 663 664 665 666 667 668 669 670 671 672 673 674 675 676 677 678 679 680 681 682 683 684 685 686 687 688 689 690 691 692 693 694 695 696 697 698 699 700 701 702 703 704 705 706 707 708 709 710 711 712 713 714 715 716 717 718 719 720 721 722 723 724 725 726 727 728 729 730 731 732 733 734 735 736 737 738 739 740 741 742 743 744 745 746 747 748 749 750 751 752 753 754 755 756 757 758 759 760 761 762 763 764 765 766 767 768 769 770 771 772 773 774 775 776 777 778 779 780 781 782 783 784 785 786 787 788 789 790 791 792 793 794 795 796 797 798 799 800 801 802 803 804 805 806 807 808 809 810 811 812 813 814 815 816 817 818 819 820 821 822 823 824 825 826 827 828 829 830 831 832 833 834 835 836 837 838 839 840 841 842 843 844 845 846 847 848 849 850 851 852 853 854 855 856 857 858 859 860 861 862 863 864 865 866 867 868 869 870 871 872 873 874 875 876 877 878 879 880 881 882 883 884 885 886 887 888 889 890 891 892 893 894 895 896 897 898 899 900 901 902 903 904 905 906 907 908 909 910 911 912 913 914 915 916 917 918 919 920 921 922 923 924 925 926 927 928 929 930 931 932 933 934 935 936 937 938 939 940 941 942 943 944 945 946 947 948 949 950 951 952 953 954 955 956 957 958 959 960 961 962 963 964 965 966 967 968 969 970 971 972 973 974 975 976 977 978 979 980 981 982 983 984 985 986 987 988 989 990 991 992 993 994 995 996 997 998 999
1 33 35 37 52 56 88
1 63 361 482
1 20 28 31 45 54
1 19 28 31 45 51 63 66 180
1
1 63
1 33 44 250
1 37 42 50 307
1 381
1 200 254
1 33 36 50 106 122 302
1 19 20 31 45 51 66 196 439
1 35 40 485
1 54
1 19 20 28 45 51
1 4 64 124 130 153 155
1 17 23 27 44 50 67 485
1 353
1 17 29 40 65
1 27 47 50
1 17 24 42 52 56 62 120 219 270 307
1
1
1 29 35 65 77
1 393
1 24 37 50 52 56 62 88
1
1 23 33
1 19 20 28 31 51 66
1 142 208
1 4 9 10 36 50 67
1 63 298
1
1 24 27 33 36 42 47 52 67 519
1 20 28 31 45 58 66
1 17 37 42 50 56 298 519
1 518
1 19 30
1 57 62 321 487
1 17 37 42 52 120
1 55 62 438
1 51
1
1 125 527
1
1 37 42 55 57 432
1 18 20 22 48 280
1 32 321
1 35 40
1 20 28 45 51
1 33 47 50 121
2 72 78 95
2
2 84 105 121
2
2 68 78 95
2 75 99 123
2
2 73 96 99 100
2 102 247
2 40
2 68 72 90 95 97
2 497
2 81 248 249
2 80 93
2
2
2 70 105 113 114 121
2 373
2 355
2
2 17 42 422 448
2
2 78 95 371
2 370
2 343 422
2 81 248
2 180
2 68 72 78 90 97 531
2 75 100 337
2 78 95
2 131 375
2 73 75 100
2 75 96 99
3 104 114
3 76 168 247 443
3
3 101 196
3 70 84 119 121
3 27
3 176 213
3 176
3 112 272 393
3
3 115
3 109 115 364 416 439 471
3 84 117
3 84 101 118 206 345 349
3 111 112 152 250
3
3 113 118
3 114 117
3 105
3 37 56
3 67 70 84 105 249
4 27 155
4 9 10 73 128 129 131 138 150 156
4 32 134 135 139 147 155 164 492
4 60 130 190 226 333 459 475 483
4 132 146 149 180 181 364 401
4 154 401 410
4 123 138 150 154 180 410 416
4 123 131 410
4 32 125 133 137 144 148 155 157
4 98 123 129 143 151 350 397
4 126 146
4 130 155 455
4 124 147 155
4 124 139 147 155
4 151 160 365
4 130 530
4 123 128 150
4 124 135 147 155
4 143 146 149 151 156 180 426
4
4 46 208 416 450 477
4 131 140 149 151 156 180 365
4 130 151 157 160 191 250 492
4
4 126 132 140 149 156 158
4 124 134 135 139
4 130
4 126 140 143 146 151 156
4 123 128 138 416
4 131 136 140 143 144 149 156 157 180
4 115
4 32 155
4 127 128 259 282 440
4 32 122 124 130 133 134 135 139 153 157 333 522
4 123 140 143 146 149 151
4 130 144 151 155 160
4 146 413
5 186 191 405
5 136 144 157 184 272 276 363
5 532
5 165
5 176 177 183 187 190 192 194
5 124 180 182 184
5 162 190
5
5 184
5 102 184 186 191 192
5 185 192 302 974
5 184
5
5
5
5
5 401 520
5 107 108 163 177 187 192 194
5 163 176 192 194
5
5 184 190
5 20 94 126 128 140 143 151 164 182 184
5 126 184 192
5 164 180
5 163
5 160 164 167 168 170 179 180 181 188 189 190 191 192 193 245
5 169 370 387
5 159 168 189 191 533
5 163 176 192 194
5 184 190 191
5 184 186 190
5 125 163 165 179 184 188 189 191
5 144 159 168 184 186 188 190 445
5 163 168 169 176 177 181 184 187 193
5 184 192
5 163 176 177 187
6 208 212 215 226
6 28 104 314
6 13 272
6 204
6 223 232 248 254 492 519
6 26 246 248 279 485 527
6 13 214 223 319 434 443 452 458 471 474 477 478 479 480 481 484
6 230
6
6 198 207 209 224 229 230
6
6 114
6 204 224 228 436 439 483 486
6 46 142 195
6 204 487
6 223
6 373
6 195
6 107
6 13 201 223 387
6 13 195 371
6
6 229 230 248
6
6 37
6 229
6
6
6 13 199 201 210 214 229 230 232
6 13 204 207 483
6 469
6 125 195 459
6 422
6 13 207 486
6 204 217 220 223 230
6 202 204 217 223 229 232
6
6 199 223 230
7 237 249 252
7 241 251 252
7 11 329 332 374 387 422 467
7 252 342
7 233 241 243 245 249 252 450
7 413
7
7
7 234 237 245 252 490
7
7 237 245 249 251 252 265
7
7 184 237 241 243 249 252
7 15 200 260 284 345 520 522 525 528 529
7 76 102 279 529
7 15 80 93 199 200 217
7 80 121 233 237 243 245 251 252
7 23 115 144 282 462 494
7 234 243 249 252
7 233 234 236 237 241 243 245 249 251
7 437
7 26 199 258 276 492
8
8 257 262
8 256 260 262 268 273 280 282 439 879
8 254 259 260 264 277
8 154 258 260 264 277 281 420
8 246 257 258 259 264 272 276 277 280
8
8 256 257 268 282 461
8
8 258 259 260 276 277
8 243 274 415 452
8 276 284 531
8 477 520
8 257 262 273 282
8
8 37
8
8 109 160 197 260 274 276 280 282 460 464 477 531
8 257 268 280
8 265 272 280 477
8
8 160 254 260 264 266 272 418 424 427 531
8 258 259 260 264 281
8
8 200 247
8 63 257 260 272 273 274
8 259 277
8 154 250 257 262 268 272 450
8
8 246 266 334 519 531
9 298 312 998
9 292 303 311 313
9 288
9 287
9 301 303 310 316
9 294 300 308
9 362 383
9 286 301 313 316
9 326 327
9 290 300 308 404
9 316
9 299 301 306 307 311 315
9
9 48 52 285 300 312 316 484 535
9 296 301 306 307 309 315 316
9 290 294 298 308
9 289 292 296 299 303 306 309 311 313 315 316
9 27 169 397 454
9 286 289 301 305 306 310 313 316
9 314
9 303 313
9 296 299 301 303 307 309 311 315
9 24 37 296 299 306 308 309 315
9 290 294 300 307
9 299 301 306 307
9 289 303
9 286 296 301 306 313 323
9 285 298 316
9 286 292 301 303 305 311 316
9 196 304 438
9 296 299 301 306 307
9 289 292 295 298 299 301 303 312 313
10 318
10 317
10 201
10
10 55 64
10
10 311
10
10
10 293 327
10 293 326
10
11 235 350 356 362 394 399 407 409 411 414
11
11
11 235 374 399
11 125 155 405
11 284
11
11
11 96 386 399
11 408
11 405
11
11
11 236
11 92 474
11
11 114 246 356 371 375 377 383 399 400 405
11
11
11 351 370
11 114 359 362 399
11 131 329
11 348 359 370 399
11 528
11 34
11
11 86 362
11 329 345
11
11 421
11 349 351 405 523
11
11 18 362
11 291 329 349 355 361 376 379 382 383 392 399 401 403 405 406
11 160
11 112 126
11 136 143 401
11
11
11
11
11 91 185 348 351 372 374 387 405
11 90 215 345 407
11 370
11 85 211 440
11 235 332 370 433
11 98 345 377 397
11 362 451
11 345 375
11 406
11 362 399 415
11
11 25
11 362 404
11 291 345 362 399 409
11
11
11 337 399
11 185 214 235 370 421 432
11
11
11
11 971
11 362 404
11 41 109
11 329
11
11
11 131 302 375
11
11 329 332 337 345 349 351 362 379 383 386 400 403 405 414
11 345 399
11 126 127 175 362 365 416
11
11 362 399
11 294 382 392
11 159 333 339 345 359 362 370 399 414
11 362 378
11 329 371 486
11 338
11 329 383
11 127 128 129
11 329
11
11 158 238
11 329 399 405
11 265 379
11 112 128 142 150 401
11
11 276 424 427
12 420 425 431
12 259 419 423 426 431
12 358 387 430 432 471
12 88 92 227 235
12 420 424 425 426 427 429 431 474
12 276 418 423 425 426 431
12 419 423 424 427 431 477
12 140 420 423 424 427 431
12 276 418 423 425 426 431
12
12 423
12 421
12 419 420 423 424 425 426 427 450
12 62 387 421
12 374
13 201 460 478
13 447
13 207
13 253 460 470
13 57 314 829
13 28 112 207 257 486
13 154 373
13
13
13 102 201 453 477 481
13
13 191
13
13 435 466
13 88 450 465
13
13 142 237 282 431 448
13 376
13 201 265 453
13 443 452 454 471 477 479
13 302 453 458 477 479
13 133
13
13
13 201 454 484 518 524
13 125 226
13 272 434 437 470 471 477 478 479 527
13 262
13 250
13
13 272 477
13 448 477
13 447
13 235
13
13 225
13 437 460 477 478
13 112 201 421 453 460 477 478 479 481
13
13
13 201 343 423 477 478 479
13 125 483
13
13 142 201 267 272 274 425 443 453 454 460 464 465 470 471 474 478 479 480
13 201 434 460 470 471 474 477 480 481
13 201 453 454 460 471 474 477 481
13 201 477 478
13 201 443 471 478 479 484
13 18
13 125 207 224 475
13 201 298 458 481 518 524
13 29 33 200
13 207 228 407 439
13 55 209
14
14 517
14 241 494
14
14 124 144 199 254
14 512
14 250 490 498 500 506 508
14
14
14 79
14 494
14
14 494 506 508
14
14
14
14 505 509 510 515
14 504 509 510
14 494 500 508
14
14 494 500 506
14 504 505 510
14 504 505 509 515
14 711
14 493
14
14
14 504 510
14
14 489
15 53 458 484 519 524
15 50 52 199 284 518 526
15 175 246 267 522 525 532
15
15 155 246 520 532
15 359
15 458 484 518 526
15 246 520
15 519 524
15 60 200 460 530
15 246 352 532
15 246 247
15 137 527
15 95 266 272 276 284
15 161 520 522 528
16 186
16
16 298
16
16
16
16
16
16
16
16
16 843
16 588 625 632 810 833 865 998
16
16
16
16
16
16 761
16
16
16 588
16
16
16
16
16
16
16 907
16
16
16
16 744
16
16
16 807
16
16
16
16
16
16
16
16
16
16 759 771
16
16 609
16
16
16
16
16 618
16
16
16 545 554
16
16 777 820 946
16
16
16
16
16
16
16
16
16
16
16
16
16
16
16
16
16 916
16
16 580 633 810 843 853 946 994
16
16
16
16
16
16
16
16
16 585 766
16
16
16
16
16
16
16 545
16
16
16
16
16 750
16
16 545
16 609 774 853 946 970
16
16
16
16
16
16
16 983
16
16 771
16
16
16 996
16
16
16
16
16
16
16
16
16
16
16
16
16
16
16
16
16 857
16
16 813
16 895
16
16
16
16
16 911
16
16
16
16
16
16
16
16
16
16
16 750
16
16
16 774
16
16
16
16
16 756
16
16
16
16
16
16
16
16
16
16
16
16
16
16
16 798
16
16
16
16
16
16
16 511
16
16
16
16
16
16
16
16
16
16
16
16
16 771
16
16
16
16
16
16
16
16
16
16 750
16
16
16
16
16
16
16
16
16
16 565
16
16
16
16
16
16 630 681 734
16
16
16
16
16
16 689
16 846
16
16 578 771
16 810
16 551
16
16
16
16
16 618
16
16
16
16
16 578 642 724 759 916
16
16
16 633 684
16
16
16 590 820
16 817
16
16
16
16
16
16
16
16
16
16
16
16
16 849
16
16
16
16
16
16
16 704
16
16
16
16
16
16
16
16
16 568
16
16
16 545 609 760
16
16
16 664
16
16
16 933
16 778
16
16
16 590 777 861
16
16
16
16
16
16
16
16
16 438
16
16
16
16 545
16
16
16
16
16
16 869
16
16
16
16 544 609 846 855 865 917
16
16
16 757 843
16
16
16 791
16
16
16
16 609 633
16
16 843
16
16 662
16
16
16
16 820
16
16
16
16 545 843
16
16
16
16 839
16
16
16
16
16
16
16
16
16
16 257
16
16
16
16
16
16
16
16
16
16
16
16
16
16
16
16 665
16
16
16
16
16
16
16
16
16
16
16 987
16 561
16
16
16
16 670
16
16
16
16
16 607 771
16 843
16
16
16
16
16
16
16
16
16
16
16
16
16
16
16
16 816
16
16
16
16
16
16
16
16
16
16
16
16
16 590 609 633
16
16
16
16
16
16
16
16
16
16
16
16
16
16
16
16
16
16
16
16
16
16
16
16 633 994
16 391
16
16
16 169
16
16
16
16
16
16
16
16
16 640
16
16
16
16 906
16
16
16
16
16
16
16 609 970
16
16 645
16
16 285 545
16
